
Gurobi 10.0.0 (win64) logging started Tue Jun  4 16:11:26 2024

Set parameter LogFile to value "C:\Users\ealvarezq\Documents\GitHub\Comillas\Models\JointResearch\05. Models\06.Benchmarking\E.Representative_days_based_on_Line_Benefits_OptModel\9n_mod1_ByStages_nc50/openStarNet_9n_mod1_ByStages_nc50.log"
Set parameter Method to value 2
Set parameter MIPFocus to value 1
Set parameter Presolve to value 2
Set parameter RINS to value 100
Set parameter MIPGap to value 0.01
Set parameter Threads to value 9
Set parameter TimeLimit to value 259200
Set parameter IterationLimit to value 760000000
Gurobi Optimizer version 10.0.0 build v10.0.0rc2 (win64)

CPU model: Intel(R) Core(TM) i7-8700 CPU @ 3.20GHz, instruction set [SSE2|AVX|AVX2]
Thread count: 6 physical cores, 12 logical processors, using up to 9 threads

Optimize a model with 13103 rows, 6984 columns and 39660 nonzeros
Model fingerprint: 0xd1f9d7ab
Variable types: 6948 continuous, 36 integer (36 binary)
Coefficient statistics:
  Matrix range     [3e-04, 4e+03]
  Objective range  [1e+00, 1e+00]
  Bounds range     [4e-04, 2e+00]
  RHS range        [3e-04, 1e+00]
Presolve removed 4453 rows and 2354 columns
Presolve time: 0.06s
Presolved: 8650 rows, 4630 columns, 29594 nonzeros
Variable types: 4594 continuous, 36 integer (36 binary)
Found heuristic solution: objective 4419.9931827
Root relaxation presolved: 8650 rows, 4630 columns, 29594 nonzeros

Root barrier log...

Ordering time: 0.01s

Barrier statistics:
 Dense cols : 36
 AA' NZ     : 1.025e+05
 Factor NZ  : 2.029e+05 (roughly 7 MB of memory)
 Factor Ops : 6.756e+06 (less than 1 second per iteration)
 Threads    : 9

                  Objective                Residual
Iter       Primal          Dual         Primal    Dual     Compl     Time
   0   4.67936679e+05 -7.49341637e+07  7.14e+00 7.74e+02  1.70e+04     0s
   1   7.88980517e+04 -3.02435888e+07  9.77e-01 7.58e-09  2.60e+03     0s
   2   1.96127164e+04 -6.84055200e+06  3.05e-02 2.62e-09  4.12e+02     0s
   3   1.15410265e+04 -1.34171616e+05  3.73e-14 6.21e-11  8.54e+00     0s
   4   1.66758580e+03 -3.36142157e+04  4.97e-14 1.40e-11  2.07e+00     0s
   5   9.09864808e+02 -1.00064888e+04  3.38e-14 3.70e-12  6.40e-01     0s
   6   5.65859048e+02 -3.15775670e+03  2.31e-14 2.50e-12  2.18e-01     0s
   7   3.38406250e+02 -6.01166136e+02  1.38e-14 3.03e-12  5.51e-02     0s
   8   2.16814644e+02 -1.37171367e+02  5.51e-14 1.36e-12  2.07e-02     0s
   9   1.13951630e+02  1.17311989e+01  1.63e-13 3.35e-12  5.99e-03     0s
  10   8.98265782e+01  6.35445476e+01  2.32e-12 2.33e-12  1.54e-03     0s
  11   8.22329631e+01  7.05454961e+01  6.06e-13 2.57e-12  6.85e-04     0s
  12   8.03376678e+01  7.20016169e+01  1.05e-11 2.35e-12  4.89e-04     0s
  13   7.79761127e+01  7.25491185e+01  5.84e-12 2.58e-12  3.18e-04     0s
  14   7.70089104e+01  7.45332396e+01  4.51e-12 2.77e-12  1.45e-04     0s
  15   7.64411962e+01  7.50338707e+01  3.23e-11 1.86e-12  8.25e-05     0s
  16   7.60000699e+01  7.58395690e+01  9.00e-12 1.93e-12  9.41e-06     0s
  17   7.59494703e+01  7.58915667e+01  4.77e-10 2.46e-12  3.39e-06     0s
  18   7.59035972e+01  7.58957455e+01  3.08e-11 2.64e-12  4.60e-07     0s
  19   7.58987056e+01  7.58970177e+01  2.12e-11 3.56e-12  9.89e-08     0s
  20   7.58985927e+01  7.58985739e+01  2.67e-09 2.53e-12  1.02e-09     0s
  21   7.58985765e+01  7.58985756e+01  1.70e-09 2.99e-12  4.59e-11     0s
  22   7.58985756e+01  7.58985756e+01  3.44e-09 3.64e-12  7.26e-14     0s

Barrier solved model in 22 iterations and 0.25 seconds (0.25 work units)
Optimal objective 7.58985756e+01


Root relaxation: objective 7.589858e+01, 753 iterations, 0.16 seconds (0.14 work units)

    Nodes    |    Current Node    |     Objective Bounds      |     Work
 Expl Unexpl |  Obj  Depth IntInf | Incumbent    BestBd   Gap | It/Node Time

     0     0   75.89858    0    6 4419.99318   75.89858  98.3%     -    0s
H    0     0                      79.8661592   75.89858  4.97%     -    0s
     0     0   78.62864    0    1   79.86616   78.62864  1.55%     -    0s
     0     0   78.62864    0    3   79.86616   78.62864  1.55%     -    0s
H    0     0                      78.9666631   78.62864  0.43%     -    0s

Cutting planes:
  Gomory: 1
  MIR: 52

Explored 1 nodes (1148 simplex iterations) in 0.58 seconds (0.42 work units)
Thread count was 9 (of 12 available processors)

Solution count 3: 78.9667 79.8662 4419.99 

Optimal solution found (tolerance 1.00e-02)
Best objective 7.896666312903e+01, best bound 7.874779260841e+01, gap 0.2772%

Gurobi 10.0.0 (win64) logging started Tue Jun  4 16:11:29 2024

Set parameter LogFile to value "C:\Users\ealvarezq\Documents\GitHub\Comillas\Models\JointResearch\05. Models\06.Benchmarking\E.Representative_days_based_on_Line_Benefits_OptModel\9n_mod1_ByStages_nc50/openStarNet_9n_mod1_ByStages_nc50.log"
Set parameter Method to value 2
Set parameter MIPFocus to value 1
Set parameter Presolve to value 2
Set parameter RINS to value 100
Set parameter MIPGap to value 0.01
Set parameter Threads to value 9
Set parameter TimeLimit to value 259200
Set parameter IterationLimit to value 760000000
Gurobi Optimizer version 10.0.0 build v10.0.0rc2 (win64)

CPU model: Intel(R) Core(TM) i7-8700 CPU @ 3.20GHz, instruction set [SSE2|AVX|AVX2]
Thread count: 6 physical cores, 12 logical processors, using up to 9 threads

Optimize a model with 13103 rows, 6948 columns and 32424 nonzeros
Model fingerprint: 0xb2c989cf
Coefficient statistics:
  Matrix range     [3e-04, 4e+03]
  Objective range  [1e+00, 1e+00]
  Bounds range     [4e-04, 2e+00]
  RHS range        [3e-04, 2e+01]
Presolve removed 11946 rows and 4604 columns
Presolve time: 0.02s
Presolved: 1157 rows, 2394 columns, 5158 nonzeros

Ordering time: 0.00s

Barrier statistics:
 AA' NZ     : 2.535e+03
 Factor NZ  : 1.146e+04 (roughly 2 MB of memory)
 Factor Ops : 1.494e+05 (less than 1 second per iteration)
 Threads    : 1

                  Objective                Residual
Iter       Primal          Dual         Primal    Dual     Compl     Time
   0   4.14884650e+05 -3.85112884e+07  5.33e+00 6.60e+02  3.13e+04     0s
   1   8.21953927e+04 -1.73384309e+07  8.82e-01 2.91e-11  5.82e+03     0s
   2   2.18996198e+04 -4.65304424e+06  6.40e-02 3.27e-11  9.54e+02     0s
   3   1.32651383e+04 -1.79231164e+05  6.58e-04 2.91e-11  3.55e+01     0s
   4   4.21183325e+03 -3.37127886e+04  6.57e-05 4.37e-11  6.97e+00     0s
   5   1.37043909e+03 -8.45102702e+03  4.41e-06 1.14e-11  1.80e+00     0s
   6   6.40523858e+02 -2.52326255e+03  2.75e-07 2.96e-12  5.81e-01     0s
   7   2.97368414e+02 -7.13424521e+02  1.22e-08 6.62e-12  1.86e-01     0s
   8   2.03085410e+02 -1.46981634e+02  5.02e-09 6.22e-12  6.43e-02     0s
   9   1.30116907e+02  3.33111497e+01  1.89e-09 7.36e-12  1.78e-02     0s
  10   8.99258829e+01  6.79197525e+01  3.04e-10 4.32e-12  4.04e-03     0s
  11   8.16869593e+01  7.46999422e+01  5.93e-11 2.49e-12  1.28e-03     0s
  12   8.01374465e+01  7.74510885e+01  2.38e-11 7.39e-12  4.93e-04     0s
  13   7.95618957e+01  7.84055457e+01  1.17e-11 1.74e-12  2.12e-04     0s
  14   7.91082304e+01  7.88363228e+01  2.61e-12 9.05e-12  4.99e-05     0s
  15   7.89906214e+01  7.89632773e+01  4.22e-13 3.98e-12  5.02e-06     0s
  16   7.89672967e+01  7.89664262e+01  7.64e-12 2.97e-12  1.60e-07     0s
  17   7.89666643e+01  7.89666605e+01  2.69e-12 1.26e-11  7.08e-10     0s
  18   7.89666631e+01  7.89666631e+01  5.30e-11 4.09e-12  6.88e-13     0s

Barrier solved model in 18 iterations and 0.03 seconds (0.03 work units)
Optimal objective 7.89666631e+01

Crossover log...

     545 DPushes remaining with DInf 0.0000000e+00                 0s
       0 DPushes remaining with DInf 0.0000000e+00                 0s

       8 PPushes remaining with PInf 0.0000000e+00                 0s
       0 PPushes remaining with PInf 0.0000000e+00                 0s

  Push phase complete: Pinf 0.0000000e+00, Dinf 1.3956501e-13      0s

Iteration    Objective       Primal Inf.    Dual Inf.      Time
      39    7.8966663e+01   0.000000e+00   0.000000e+00      0s

Solved in 39 iterations and 0.04 seconds (0.03 work units)
Optimal objective  7.896666313e+01

Gurobi 11.0.0 (linux64) logging started Tue Aug  6 22:33:40 2024

Set parameter LogFile to value "/lustre1/scratch/348/vsc34888/JointResearch/05.Models/06.Benchmarking/E.Representative_days_based_on_Line_Benefits_OptModel/9n_mod1_ByStages_nc50/openStarNet_9n_mod1_ByStages_nc50.log"
Set parameter Method to value 2
Set parameter MIPFocus to value 1
Set parameter Presolve to value 2
Set parameter RINS to value 100
Set parameter MIPGap to value 0.01
Set parameter Threads to value 36
Set parameter TimeLimit to value 259200
Set parameter IterationLimit to value 760000000
Gurobi Optimizer version 11.0.0 build v11.0.0rc2 (linux64 - "Rocky Linux 8.9 (Green Obsidian)")

CPU model: Intel(R) Xeon(R) Gold 6240 CPU @ 2.60GHz, instruction set [SSE2|AVX|AVX2|AVX512]
Thread count: 36 physical cores, 36 logical processors, using up to 36 threads

Optimize a model with 13103 rows, 6948 columns and 32424 nonzeros
Model fingerprint: 0xef43a69d
Coefficient statistics:
  Matrix range     [3e-04, 4e+03]
  Objective range  [1e+00, 1e+00]
  Bounds range     [4e-04, 2e+00]
  RHS range        [3e-04, 1e+00]
Presolve removed 11938 rows and 4607 columns
Presolve time: 0.01s
Presolved: 1165 rows, 2391 columns, 5171 nonzeros

Ordering time: 0.00s

Barrier statistics:
 AA' NZ     : 2.575e+03
 Factor NZ  : 1.152e+04 (roughly 2 MB of memory)
 Factor Ops : 1.500e+05 (less than 1 second per iteration)
 Threads    : 1

                  Objective                Residual
Iter       Primal          Dual         Primal    Dual     Compl     Time
   0   6.11383707e+05 -3.64166936e+07  4.75e+00 7.28e-12  3.03e+04     0s
   1   1.01805920e+05 -1.63541718e+07  6.57e-01 3.43e-11  5.18e+03     0s
   2   4.09421452e+04 -4.68722413e+06  1.90e-01 3.35e-11  1.20e+03     0s
   3   1.80428425e+04 -4.36183652e+05  8.09e-03 2.18e-11  8.70e+01     0s
   4   1.01063105e+04 -1.67643050e+04  3.47e-14 3.17e-10  4.93e+00     0s
   5   5.50685912e+03 -2.07082850e+03  2.56e-14 9.56e-11  1.39e+00     0s
   6   4.93847379e+03  2.17305121e+03  6.58e-15 3.01e-11  5.08e-01     0s
   7   4.65176350e+03  3.46478772e+03  7.99e-15 1.28e-11  2.18e-01     0s
   8   4.54897488e+03  4.16115900e+03  8.77e-15 7.28e-12  7.12e-02     0s
   9   4.45915655e+03  4.34172988e+03  9.77e-15 7.28e-12  2.16e-02     0s
  10   4.42951228e+03  4.40220479e+03  7.22e-15 7.28e-12  5.01e-03     0s
  11   4.42172887e+03  4.41595061e+03  8.77e-15 3.64e-12  1.06e-03     0s
  12   4.42055946e+03  4.41894711e+03  6.22e-15 7.28e-12  2.96e-04     0s
  13   4.42018293e+03  4.41965271e+03  8.99e-15 7.28e-12  9.73e-05     0s
  14   4.42008870e+03  4.41987765e+03  1.09e-14 7.28e-12  3.87e-05     0s
  15   4.42000737e+03  4.41998017e+03  7.15e-14 7.28e-12  4.99e-06     0s
  16   4.41999407e+03  4.41999298e+03  2.18e-13 3.64e-12  2.01e-07     0s
  17   4.41999318e+03  4.41999318e+03  3.58e-13 7.28e-12  3.37e-10     0s

Barrier solved model in 17 iterations and 0.03 seconds (0.03 work units)
Optimal objective 4.41999318e+03

Crossover log...

     533 DPushes remaining with DInf 0.0000000e+00                 0s
       0 DPushes remaining with DInf 0.0000000e+00                 0s

       9 PPushes remaining with PInf 0.0000000e+00                 0s
       0 PPushes remaining with PInf 0.0000000e+00                 0s

  Push phase complete: Pinf 0.0000000e+00, Dinf 2.8205910e-13      0s

Iteration    Objective       Primal Inf.    Dual Inf.      Time
      61    4.4199932e+03   0.000000e+00   0.000000e+00      0s

Solved in 61 iterations and 0.03 seconds (0.03 work units)
Optimal objective  4.419993183e+03

Gurobi 11.0.0 (linux64) logging started Tue Aug  6 22:33:41 2024

Set parameter LogFile to value "/lustre1/scratch/348/vsc34888/JointResearch/05.Models/06.Benchmarking/E.Representative_days_based_on_Line_Benefits_OptModel/9n_mod1_ByStages_nc50/openStarNet_9n_mod1_ByStages_nc50.log"
Set parameter Method to value 2
Set parameter MIPFocus to value 1
Set parameter Presolve to value 2
Set parameter RINS to value 100
Set parameter MIPGap to value 0.01
Set parameter Threads to value 36
Set parameter TimeLimit to value 259200
Set parameter IterationLimit to value 760000000
Gurobi Optimizer version 11.0.0 build v11.0.0rc2 (linux64 - "Rocky Linux 8.9 (Green Obsidian)")

CPU model: Intel(R) Xeon(R) Gold 6240 CPU @ 2.60GHz, instruction set [SSE2|AVX|AVX2|AVX512]
Thread count: 36 physical cores, 36 logical processors, using up to 36 threads

Optimize a model with 13103 rows, 6948 columns and 32424 nonzeros
Model fingerprint: 0xef43a69d
Coefficient statistics:
  Matrix range     [3e-04, 4e+03]
  Objective range  [1e+00, 1e+00]
  Bounds range     [4e-04, 2e+00]
  RHS range        [3e-04, 1e+00]
Presolve removed 11938 rows and 4607 columns
Presolve time: 0.01s
Presolved: 1165 rows, 2391 columns, 5171 nonzeros

Ordering time: 0.00s

Barrier statistics:
 AA' NZ     : 2.575e+03
 Factor NZ  : 1.152e+04 (roughly 2 MB of memory)
 Factor Ops : 1.500e+05 (less than 1 second per iteration)
 Threads    : 1

                  Objective                Residual
Iter       Primal          Dual         Primal    Dual     Compl     Time
   0   6.11383707e+05 -3.64166936e+07  4.75e+00 7.28e-12  3.03e+04     0s
   1   1.01805920e+05 -1.63541718e+07  6.57e-01 3.43e-11  5.18e+03     0s
   2   4.09421452e+04 -4.68722413e+06  1.90e-01 3.35e-11  1.20e+03     0s
   3   1.80428425e+04 -4.36183652e+05  8.09e-03 2.18e-11  8.70e+01     0s
   4   1.01063105e+04 -1.67643050e+04  3.47e-14 3.17e-10  4.93e+00     0s
   5   5.50685912e+03 -2.07082850e+03  2.56e-14 9.56e-11  1.39e+00     0s
   6   4.93847379e+03  2.17305121e+03  6.58e-15 3.01e-11  5.08e-01     0s
   7   4.65176350e+03  3.46478772e+03  7.99e-15 1.28e-11  2.18e-01     0s
   8   4.54897488e+03  4.16115900e+03  8.77e-15 7.28e-12  7.12e-02     0s
   9   4.45915655e+03  4.34172988e+03  9.77e-15 7.28e-12  2.16e-02     0s
  10   4.42951228e+03  4.40220479e+03  7.22e-15 7.28e-12  5.01e-03     0s
  11   4.42172887e+03  4.41595061e+03  8.77e-15 3.64e-12  1.06e-03     0s
  12   4.42055946e+03  4.41894711e+03  6.22e-15 7.28e-12  2.96e-04     0s
  13   4.42018293e+03  4.41965271e+03  8.99e-15 7.28e-12  9.73e-05     0s
  14   4.42008870e+03  4.41987765e+03  1.09e-14 7.28e-12  3.87e-05     0s
  15   4.42000737e+03  4.41998017e+03  7.15e-14 7.28e-12  4.99e-06     0s
  16   4.41999407e+03  4.41999298e+03  2.18e-13 3.64e-12  2.01e-07     0s
  17   4.41999318e+03  4.41999318e+03  3.58e-13 7.28e-12  3.37e-10     0s

Barrier solved model in 17 iterations and 0.03 seconds (0.03 work units)
Optimal objective 4.41999318e+03

Crossover log...

     533 DPushes remaining with DInf 0.0000000e+00                 0s
       0 DPushes remaining with DInf 0.0000000e+00                 0s

       9 PPushes remaining with PInf 0.0000000e+00                 0s
       0 PPushes remaining with PInf 0.0000000e+00                 0s

  Push phase complete: Pinf 0.0000000e+00, Dinf 2.8205910e-13      0s

Iteration    Objective       Primal Inf.    Dual Inf.      Time
      61    4.4199932e+03   0.000000e+00   0.000000e+00      0s

Solved in 61 iterations and 0.03 seconds (0.03 work units)
Optimal objective  4.419993183e+03
